;Number of predicates (nodes) = 13
;Number of variables = 5
;Number of clauses = 16
;
(set-logic HORN)
(declare-fun assign_139_22_5 (Int Int Int Int Int Int Int Int Int Int Int) Bool)
(declare-fun assert_130_21_5 (Int Int Int Int Int Int Int Int Int Int Int) Bool)
(declare-fun while_142_20_1 (Int Int Int Int Int Int Int Int Int Int Int) Bool)
(declare-fun assign_104_19_1 (Int Int Int Int Int Int Int Int Int Int Int) Bool)
(declare-fun assign_95_16_5 (Int Int Int Int Int Int Int Int Int Int Int) Bool)
(declare-fun assign_86_15_5 (Int Int Int Int Int Int Int Int Int Int Int) Bool)
(declare-fun arrayassign_77_14_5 (Int Int Int Int Int Int Int Int Int Int Int) Bool)
(declare-fun while_98_13_1 (Int Int Int Int Int Int Int Int Int Int Int) Bool)
(declare-fun assign_55_11_1 (Int Int Int Int Int Int Int Int Int Int Int) Bool)
(declare-fun assign_43_10_1 (Int Int Int Int Int Int Int Int Int Int Int) Bool)
(declare-fun assign_37_9_1 (Int Int Int Int Int Int Int Int Int Int Int) Bool)
(declare-fun end (Int Int Int Int Int Int Int Int Int Int Int) Bool)
(declare-fun start (Int Int Int Int Int Int Int Int Int Int Int) Bool)
(assert (forall ((a0_ind Int) (a0_val Int) (a1_ind Int) (a1_val Int) (a_copy0_ind Int) (a_copy0_val Int) (a_copy1_ind Int) (a_copy1_val Int) (i Int) (j Int) (size Int)) (=> (and (< a0_ind a1_ind) (< a_copy0_ind a_copy1_ind)) (start a_copy0_ind a_copy0_val a_copy1_ind a_copy1_val a0_ind a0_val a1_ind a1_val size j i))))
(assert (forall ((a0_ind Int) (a0_val Int) (a1_ind Int) (a1_val Int) (a_copy0_ind Int) (a_copy0_val Int) (a_copy1_ind Int) (a_copy1_val Int) (i Int) (j Int) (size Int)) (=> (and (< a0_ind a1_ind) (< a_copy0_ind a_copy1_ind) (start a_copy0_ind a_copy0_val a_copy1_ind a_copy1_val a0_ind a0_val a1_ind a1_val size j i)) (assign_37_9_1 a_copy0_ind a_copy0_val a_copy1_ind a_copy1_val a0_ind a0_val a1_ind a1_val size j i))))
;
;(assign)  i := 1
(assert (forall ((a0_ind Int) (a0_val Int) (a1_ind Int) (a1_val Int) (a_copy0_ind Int) (a_copy0_val Int) (a_copy1_ind Int) (a_copy1_val Int) (i Int) (j Int) (size Int)) (=> (and (< a0_ind a1_ind) (< a_copy0_ind a_copy1_ind) (assign_37_9_1 a_copy0_ind a_copy0_val a_copy1_ind a_copy1_val a0_ind a0_val a1_ind a1_val size j i)) (assign_43_10_1 a_copy0_ind a_copy0_val a_copy1_ind a_copy1_val a0_ind a0_val a1_ind a1_val size j 1))))
;
;(assign)  j := 0
(assert (forall ((a0_ind Int) (a0_val Int) (a1_ind Int) (a1_val Int) (a_copy0_ind Int) (a_copy0_val Int) (a_copy1_ind Int) (a_copy1_val Int) (i Int) (j Int) (size Int)) (=> (and (< a0_ind a1_ind) (< a_copy0_ind a_copy1_ind) (assign_43_10_1 a_copy0_ind a_copy0_val a_copy1_ind a_copy1_val a0_ind a0_val a1_ind a1_val size j i)) (assign_55_11_1 a_copy0_ind a_copy0_val a_copy1_ind a_copy1_val a0_ind a0_val a1_ind a1_val size 0 i))))
;
;(assign)  size := Support.random()
(assert (forall ((a0_ind Int) (a0_val Int) (a1_ind Int) (a1_val Int) (a_copy0_ind Int) (a_copy0_val Int) (a_copy1_ind Int) (a_copy1_val Int) (i Int) (j Int) (rnd Int) (size Int)) (=> (and (< a0_ind a1_ind) (< a_copy0_ind a_copy1_ind) (assign_55_11_1 a_copy0_ind a_copy0_val a_copy1_ind a_copy1_val a0_ind a0_val a1_ind a1_val size j i)) (while_98_13_1 a_copy0_ind a_copy0_val a_copy1_ind a_copy1_val a0_ind a0_val a1_ind a1_val rnd j i))))
;
;(while)   while((i<size))
(assert (forall ((a0_ind Int) (a0_val Int) (a1_ind Int) (a1_val Int) (a_copy0_ind Int) (a_copy0_val Int) (a_copy1_ind Int) (a_copy1_val Int) (i Int) (j Int) (size Int)) (=> (and (< a0_ind a1_ind) (< a_copy0_ind a_copy1_ind) (while_98_13_1 a_copy0_ind a_copy0_val a_copy1_ind a_copy1_val a0_ind a0_val a1_ind a1_val size j i) (< i size)) (arrayassign_77_14_5 a_copy0_ind a_copy0_val a_copy1_ind a_copy1_val a0_ind a0_val a1_ind a1_val size j i))))
(assert (forall ((a0_ind Int) (a0_val Int) (a1_ind Int) (a1_val Int) (a_copy0_ind Int) (a_copy0_val Int) (a_copy1_ind Int) (a_copy1_val Int) (i Int) (j Int) (size Int)) (=> (and (< a0_ind a1_ind) (< a_copy0_ind a_copy1_ind) (while_98_13_1 a_copy0_ind a_copy0_val a_copy1_ind a_copy1_val a0_ind a0_val a1_ind a1_val size j i) (not (< i size))) (assign_104_19_1 a_copy0_ind a_copy0_val a_copy1_ind a_copy1_val a0_ind a0_val a1_ind a1_val size j i))))
;
;(aassign) a_copy[i] := a[i]
(assert (forall ((a0_ind Int) (a0_val Int) (a1_ind Int) (a1_val Int) (a_copy0_ind Int) (a_copy0_val Int) (a_copy1_ind Int) (a_copy1_val Int) (i Int) (j Int) (size Int) (tmp_select_a Int) (tmp_store_a_copy0_ind Int) (tmp_store_a_copy0_val Int) (tmp_store_a_copy1_ind Int) (tmp_store_a_copy1_val Int)) (=> (and (< a0_ind a1_ind) (< a_copy0_ind a_copy1_ind) (arrayassign_77_14_5 a_copy0_ind a_copy0_val a_copy1_ind a_copy1_val a0_ind a0_val a1_ind a1_val size j i) (or (and (= a0_ind i) (= tmp_select_a a0_val)) (and (= a1_ind i) (= tmp_select_a a1_val)) (and (< i a0_ind) (< i a1_ind) (arrayassign_77_14_5 a_copy0_ind a_copy0_val a_copy1_ind a_copy1_val i tmp_select_a a1_ind a1_val size j i) (< i a0_ind) (arrayassign_77_14_5 a_copy0_ind a_copy0_val a_copy1_ind a_copy1_val i tmp_select_a a0_ind a0_val size j i)) (and (< a0_ind i) (< i a1_ind) (< i a1_ind) (arrayassign_77_14_5 a_copy0_ind a_copy0_val a_copy1_ind a_copy1_val i tmp_select_a a1_ind a1_val size j i) (< a0_ind i) (arrayassign_77_14_5 a_copy0_ind a_copy0_val a_copy1_ind a_copy1_val a0_ind a0_val i tmp_select_a size j i)) (and (< a1_ind i) (< a1_ind i) (arrayassign_77_14_5 a_copy0_ind a_copy0_val a_copy1_ind a_copy1_val a1_ind a1_val i tmp_select_a size j i) (< a0_ind i) (arrayassign_77_14_5 a_copy0_ind a_copy0_val a_copy1_ind a_copy1_val a0_ind a0_val i tmp_select_a size j i))) (= tmp_store_a_copy0_ind a_copy0_ind) (= tmp_store_a_copy1_ind a_copy1_ind) (or (and (= a_copy0_ind i) (= tmp_store_a_copy1_val a_copy1_val) (= tmp_store_a_copy0_val tmp_select_a)) (and (= a_copy1_ind i) (= tmp_store_a_copy0_val a_copy0_val) (= tmp_store_a_copy1_val tmp_select_a)) (and (not (= a_copy0_ind i)) (not (= a_copy1_ind i)) (= tmp_store_a_copy0_val a_copy0_val) (= tmp_store_a_copy1_val a_copy1_val)))) (assign_86_15_5 tmp_store_a_copy0_ind tmp_store_a_copy0_val tmp_store_a_copy1_ind tmp_store_a_copy1_val a0_ind a0_val a1_ind a1_val size j i))))
;
;(assign)  i := (i+2)
(assert (forall ((a0_ind Int) (a0_val Int) (a1_ind Int) (a1_val Int) (a_copy0_ind Int) (a_copy0_val Int) (a_copy1_ind Int) (a_copy1_val Int) (i Int) (j Int) (size Int)) (=> (and (< a0_ind a1_ind) (< a_copy0_ind a_copy1_ind) (assign_86_15_5 a_copy0_ind a_copy0_val a_copy1_ind a_copy1_val a0_ind a0_val a1_ind a1_val size j i)) (assign_95_16_5 a_copy0_ind a_copy0_val a_copy1_ind a_copy1_val a0_ind a0_val a1_ind a1_val size j (+ i 2)))))
;
;(assign)  j := (j+1)
(assert (forall ((a0_ind Int) (a0_val Int) (a1_ind Int) (a1_val Int) (a_copy0_ind Int) (a_copy0_val Int) (a_copy1_ind Int) (a_copy1_val Int) (i Int) (j Int) (size Int)) (=> (and (< a0_ind a1_ind) (< a_copy0_ind a_copy1_ind) (assign_95_16_5 a_copy0_ind a_copy0_val a_copy1_ind a_copy1_val a0_ind a0_val a1_ind a1_val size j i)) (while_98_13_1 a_copy0_ind a_copy0_val a_copy1_ind a_copy1_val a0_ind a0_val a1_ind a1_val size (+ j 1) i))))
;
;(assign)  i := 0
(assert (forall ((a0_ind Int) (a0_val Int) (a1_ind Int) (a1_val Int) (a_copy0_ind Int) (a_copy0_val Int) (a_copy1_ind Int) (a_copy1_val Int) (i Int) (j Int) (size Int)) (=> (and (< a0_ind a1_ind) (< a_copy0_ind a_copy1_ind) (assign_104_19_1 a_copy0_ind a_copy0_val a_copy1_ind a_copy1_val a0_ind a0_val a1_ind a1_val size j i)) (while_142_20_1 a_copy0_ind a_copy0_val a_copy1_ind a_copy1_val a0_ind a0_val a1_ind a1_val size j 0))))
;
;(while)   while((i<size))
(assert (forall ((a0_ind Int) (a0_val Int) (a1_ind Int) (a1_val Int) (a_copy0_ind Int) (a_copy0_val Int) (a_copy1_ind Int) (a_copy1_val Int) (i Int) (j Int) (size Int)) (=> (and (< a0_ind a1_ind) (< a_copy0_ind a_copy1_ind) (while_142_20_1 a_copy0_ind a_copy0_val a_copy1_ind a_copy1_val a0_ind a0_val a1_ind a1_val size j i) (< i size)) (assert_130_21_5 a_copy0_ind a_copy0_val a_copy1_ind a_copy1_val a0_ind a0_val a1_ind a1_val size j i))))
(assert (forall ((a0_ind Int) (a0_val Int) (a1_ind Int) (a1_val Int) (a_copy0_ind Int) (a_copy0_val Int) (a_copy1_ind Int) (a_copy1_val Int) (i Int) (j Int) (size Int)) (=> (and (< a0_ind a1_ind) (< a_copy0_ind a_copy1_ind) (while_142_20_1 a_copy0_ind a_copy0_val a_copy1_ind a_copy1_val a0_ind a0_val a1_ind a1_val size j i) (not (< i size))) (end a_copy0_ind a_copy0_val a_copy1_ind a_copy1_val a0_ind a0_val a1_ind a1_val size j i))))
;
;(assert)  (a_copy[i]==a[j])
(assert (forall ((a0_ind Int) (a0_val Int) (a1_ind Int) (a1_val Int) (a_copy0_ind Int) (a_copy0_val Int) (a_copy1_ind Int) (a_copy1_val Int) (i Int) (j Int) (size Int) (tmp_select_a Int) (tmp_select_a_copy Int)) (=> (and (< a0_ind a1_ind) (< a_copy0_ind a_copy1_ind) (assert_130_21_5 a_copy0_ind a_copy0_val a_copy1_ind a_copy1_val a0_ind a0_val a1_ind a1_val size j i) (or (and (= a_copy0_ind i) (= tmp_select_a_copy a_copy0_val)) (and (= a_copy1_ind i) (= tmp_select_a_copy a_copy1_val)) (and (< i a_copy0_ind) (< i a_copy1_ind) (assert_130_21_5 i tmp_select_a_copy a_copy1_ind a_copy1_val a0_ind a0_val a1_ind a1_val size j i) (< i a_copy0_ind) (assert_130_21_5 i tmp_select_a_copy a_copy0_ind a_copy0_val a0_ind a0_val a1_ind a1_val size j i)) (and (< a_copy0_ind i) (< i a_copy1_ind) (< i a_copy1_ind) (assert_130_21_5 i tmp_select_a_copy a_copy1_ind a_copy1_val a0_ind a0_val a1_ind a1_val size j i) (< a_copy0_ind i) (assert_130_21_5 a_copy0_ind a_copy0_val i tmp_select_a_copy a0_ind a0_val a1_ind a1_val size j i)) (and (< a_copy1_ind i) (< a_copy1_ind i) (assert_130_21_5 a_copy1_ind a_copy1_val i tmp_select_a_copy a0_ind a0_val a1_ind a1_val size j i) (< a_copy0_ind i) (assert_130_21_5 a_copy0_ind a_copy0_val i tmp_select_a_copy a0_ind a0_val a1_ind a1_val size j i))) (or (and (= a0_ind j) (= tmp_select_a a0_val)) (and (= a1_ind j) (= tmp_select_a a1_val)) (and (< j a0_ind) (< j a1_ind) (assert_130_21_5 a_copy0_ind a_copy0_val a_copy1_ind a_copy1_val j tmp_select_a a1_ind a1_val size j i) (or (and (= a_copy0_ind i) (= tmp_select_a_copy a_copy0_val)) (and (= a_copy1_ind i) (= tmp_select_a_copy a_copy1_val)) (and (< i a_copy0_ind) (< i a_copy1_ind) (assert_130_21_5 i tmp_select_a_copy a_copy1_ind a_copy1_val j tmp_select_a a1_ind a1_val size j i) (< i a_copy0_ind) (assert_130_21_5 i tmp_select_a_copy a_copy0_ind a_copy0_val j tmp_select_a a1_ind a1_val size j i)) (and (< a_copy0_ind i) (< i a_copy1_ind) (< i a_copy1_ind) (assert_130_21_5 i tmp_select_a_copy a_copy1_ind a_copy1_val j tmp_select_a a1_ind a1_val size j i) (< a_copy0_ind i) (assert_130_21_5 a_copy0_ind a_copy0_val i tmp_select_a_copy j tmp_select_a a1_ind a1_val size j i)) (and (< a_copy1_ind i) (< a_copy1_ind i) (assert_130_21_5 a_copy1_ind a_copy1_val i tmp_select_a_copy j tmp_select_a a1_ind a1_val size j i) (< a_copy0_ind i) (assert_130_21_5 a_copy0_ind a_copy0_val i tmp_select_a_copy j tmp_select_a a1_ind a1_val size j i))) (< j a0_ind) (assert_130_21_5 a_copy0_ind a_copy0_val a_copy1_ind a_copy1_val j tmp_select_a a0_ind a0_val size j i) (or (and (= a_copy0_ind i) (= tmp_select_a_copy a_copy0_val)) (and (= a_copy1_ind i) (= tmp_select_a_copy a_copy1_val)) (and (< i a_copy0_ind) (< i a_copy1_ind) (assert_130_21_5 i tmp_select_a_copy a_copy1_ind a_copy1_val j tmp_select_a a0_ind a0_val size j i) (< i a_copy0_ind) (assert_130_21_5 i tmp_select_a_copy a_copy0_ind a_copy0_val j tmp_select_a a0_ind a0_val size j i)) (and (< a_copy0_ind i) (< i a_copy1_ind) (< i a_copy1_ind) (assert_130_21_5 i tmp_select_a_copy a_copy1_ind a_copy1_val j tmp_select_a a0_ind a0_val size j i) (< a_copy0_ind i) (assert_130_21_5 a_copy0_ind a_copy0_val i tmp_select_a_copy j tmp_select_a a0_ind a0_val size j i)) (and (< a_copy1_ind i) (< a_copy1_ind i) (assert_130_21_5 a_copy1_ind a_copy1_val i tmp_select_a_copy j tmp_select_a a0_ind a0_val size j i) (< a_copy0_ind i) (assert_130_21_5 a_copy0_ind a_copy0_val i tmp_select_a_copy j tmp_select_a a0_ind a0_val size j i)))) (and (< a0_ind j) (< j a1_ind) (< j a1_ind) (assert_130_21_5 a_copy0_ind a_copy0_val a_copy1_ind a_copy1_val j tmp_select_a a1_ind a1_val size j i) (or (and (= a_copy0_ind i) (= tmp_select_a_copy a_copy0_val)) (and (= a_copy1_ind i) (= tmp_select_a_copy a_copy1_val)) (and (< i a_copy0_ind) (< i a_copy1_ind) (assert_130_21_5 i tmp_select_a_copy a_copy1_ind a_copy1_val j tmp_select_a a1_ind a1_val size j i) (< i a_copy0_ind) (assert_130_21_5 i tmp_select_a_copy a_copy0_ind a_copy0_val j tmp_select_a a1_ind a1_val size j i)) (and (< a_copy0_ind i) (< i a_copy1_ind) (< i a_copy1_ind) (assert_130_21_5 i tmp_select_a_copy a_copy1_ind a_copy1_val j tmp_select_a a1_ind a1_val size j i) (< a_copy0_ind i) (assert_130_21_5 a_copy0_ind a_copy0_val i tmp_select_a_copy j tmp_select_a a1_ind a1_val size j i)) (and (< a_copy1_ind i) (< a_copy1_ind i) (assert_130_21_5 a_copy1_ind a_copy1_val i tmp_select_a_copy j tmp_select_a a1_ind a1_val size j i) (< a_copy0_ind i) (assert_130_21_5 a_copy0_ind a_copy0_val i tmp_select_a_copy j tmp_select_a a1_ind a1_val size j i))) (< a0_ind j) (assert_130_21_5 a_copy0_ind a_copy0_val a_copy1_ind a_copy1_val a0_ind a0_val j tmp_select_a size j i) (or (and (= a_copy0_ind i) (= tmp_select_a_copy a_copy0_val)) (and (= a_copy1_ind i) (= tmp_select_a_copy a_copy1_val)) (and (< i a_copy0_ind) (< i a_copy1_ind) (assert_130_21_5 i tmp_select_a_copy a_copy1_ind a_copy1_val a0_ind a0_val j tmp_select_a size j i) (< i a_copy0_ind) (assert_130_21_5 i tmp_select_a_copy a_copy0_ind a_copy0_val a0_ind a0_val j tmp_select_a size j i)) (and (< a_copy0_ind i) (< i a_copy1_ind) (< i a_copy1_ind) (assert_130_21_5 i tmp_select_a_copy a_copy1_ind a_copy1_val a0_ind a0_val j tmp_select_a size j i) (< a_copy0_ind i) (assert_130_21_5 a_copy0_ind a_copy0_val i tmp_select_a_copy a0_ind a0_val j tmp_select_a size j i)) (and (< a_copy1_ind i) (< a_copy1_ind i) (assert_130_21_5 a_copy1_ind a_copy1_val i tmp_select_a_copy a0_ind a0_val j tmp_select_a size j i) (< a_copy0_ind i) (assert_130_21_5 a_copy0_ind a_copy0_val i tmp_select_a_copy a0_ind a0_val j tmp_select_a size j i)))) (and (< a1_ind j) (< a1_ind j) (assert_130_21_5 a_copy0_ind a_copy0_val a_copy1_ind a_copy1_val a1_ind a1_val j tmp_select_a size j i) (or (and (= a_copy0_ind i) (= tmp_select_a_copy a_copy0_val)) (and (= a_copy1_ind i) (= tmp_select_a_copy a_copy1_val)) (and (< i a_copy0_ind) (< i a_copy1_ind) (assert_130_21_5 i tmp_select_a_copy a_copy1_ind a_copy1_val a1_ind a1_val j tmp_select_a size j i) (< i a_copy0_ind) (assert_130_21_5 i tmp_select_a_copy a_copy0_ind a_copy0_val a1_ind a1_val j tmp_select_a size j i)) (and (< a_copy0_ind i) (< i a_copy1_ind) (< i a_copy1_ind) (assert_130_21_5 i tmp_select_a_copy a_copy1_ind a_copy1_val a1_ind a1_val j tmp_select_a size j i) (< a_copy0_ind i) (assert_130_21_5 a_copy0_ind a_copy0_val i tmp_select_a_copy a1_ind a1_val j tmp_select_a size j i)) (and (< a_copy1_ind i) (< a_copy1_ind i) (assert_130_21_5 a_copy1_ind a_copy1_val i tmp_select_a_copy a1_ind a1_val j tmp_select_a size j i) (< a_copy0_ind i) (assert_130_21_5 a_copy0_ind a_copy0_val i tmp_select_a_copy a1_ind a1_val j tmp_select_a size j i))) (< a0_ind j) (assert_130_21_5 a_copy0_ind a_copy0_val a_copy1_ind a_copy1_val a0_ind a0_val j tmp_select_a size j i) (or (and (= a_copy0_ind i) (= tmp_select_a_copy a_copy0_val)) (and (= a_copy1_ind i) (= tmp_select_a_copy a_copy1_val)) (and (< i a_copy0_ind) (< i a_copy1_ind) (assert_130_21_5 i tmp_select_a_copy a_copy1_ind a_copy1_val a0_ind a0_val j tmp_select_a size j i) (< i a_copy0_ind) (assert_130_21_5 i tmp_select_a_copy a_copy0_ind a_copy0_val a0_ind a0_val j tmp_select_a size j i)) (and (< a_copy0_ind i) (< i a_copy1_ind) (< i a_copy1_ind) (assert_130_21_5 i tmp_select_a_copy a_copy1_ind a_copy1_val a0_ind a0_val j tmp_select_a size j i) (< a_copy0_ind i) (assert_130_21_5 a_copy0_ind a_copy0_val i tmp_select_a_copy a0_ind a0_val j tmp_select_a size j i)) (and (< a_copy1_ind i) (< a_copy1_ind i) (assert_130_21_5 a_copy1_ind a_copy1_val i tmp_select_a_copy a0_ind a0_val j tmp_select_a size j i) (< a_copy0_ind i) (assert_130_21_5 a_copy0_ind a_copy0_val i tmp_select_a_copy a0_ind a0_val j tmp_select_a size j i)))))) (= tmp_select_a_copy tmp_select_a))))
(assert (forall ((a0_ind Int) (a0_val Int) (a1_ind Int) (a1_val Int) (a_copy0_ind Int) (a_copy0_val Int) (a_copy1_ind Int) (a_copy1_val Int) (i Int) (j Int) (size Int)) (=> (and (< a0_ind a1_ind) (< a_copy0_ind a_copy1_ind) (assert_130_21_5 a_copy0_ind a_copy0_val a_copy1_ind a_copy1_val a0_ind a0_val a1_ind a1_val size j i)) (assign_139_22_5 a_copy0_ind a_copy0_val a_copy1_ind a_copy1_val a0_ind a0_val a1_ind a1_val size j i))))
;
;(assign)  i := (i+1)
(assert (forall ((a0_ind Int) (a0_val Int) (a1_ind Int) (a1_val Int) (a_copy0_ind Int) (a_copy0_val Int) (a_copy1_ind Int) (a_copy1_val Int) (i Int) (j Int) (size Int)) (=> (and (< a0_ind a1_ind) (< a_copy0_ind a_copy1_ind) (assign_139_22_5 a_copy0_ind a_copy0_val a_copy1_ind a_copy1_val a0_ind a0_val a1_ind a1_val size j i)) (while_142_20_1 a_copy0_ind a_copy0_val a_copy1_ind a_copy1_val a0_ind a0_val a1_ind a1_val size j (+ i 1)))))
(check-sat)
